tsp_instances/TSP50/instance111.tsp
NODE_COORD_SECTION
0 101 188
1 72 163
2 3 150
3 49 135
4 59 5
5 67 1
6 142 145
7 3 27
8 66 130
9 91 162
10 42 64
11 104 16
12 156 99
13 41 52
14 130 0
15 112 141
16 114 142
17 23 180
18 181 178
19 182 77
20 60 147
21 42 158
22 139 25
23 176 59
24 55 65
25 198 95
26 145 148
27 57 151
28 191 14
29 134 200
30 8 46
31 60 127
32 186 147
33 45 178
34 117 94
35 68 18
36 13 131
37 45 149
38 62 178
39 20 193
40 77 109
41 134 164
42 107 76
43 186 107
44 191 140
45 67 152
46 43 65
47 121 71
48 74 144
49 8 91
