tsp_instances/TSP50/instance111.opt.tour
TOUR_SECTION
1
10
16
17
42
27
7
13
35
48
43
41
9
32
4
38
22
28
21
49
46
2
39
34
40
18
3
37
50
31
8
14
11
47
25
36
5
6
12
15
23
29
24
20
26
44
45
33
19
30
-1